c 
c G(k,n,p) graph
c graph gen seed     : 321
c number of vertices : 25
c max number of edges: 500
c number of classes  : 2
c edge density       : 0.800000
c edge probability   : 1.600000
c data structure     : dense
c
c           Graph Stats
c number of vertices  : 25
c nonisolated vertices: 25
c number of edges     : 154
c edge density        : 0.513333
c max degree          : 14
c avg degree          : 12.32
c min degree          : 11
p col 25 154
e 1 2
e 1 5
e 1 6
e 1 7
e 1 11
e 1 17
e 1 21
e 1 22
e 1 23
e 1 24
e 1 25
e 2 3
e 2 4
e 2 8
e 2 9
e 2 10
e 2 12
e 2 13
e 2 14
e 2 15
e 2 16
e 2 18
e 2 19
e 2 20
e 3 5
e 3 6
e 3 7
e 3 11
e 3 17
e 3 21
e 3 22
e 3 23
e 3 24
e 3 25
e 4 5
e 4 6
e 4 7
e 4 11
e 4 17
e 4 21
e 4 22
e 4 23
e 4 24
e 4 25
e 5 8
e 5 9
e 5 10
e 5 12
e 5 13
e 5 14
e 5 15
e 5 16
e 5 18
e 5 19
e 5 20
e 6 8
e 6 9
e 6 10
e 6 12
e 6 13
e 6 14
e 6 15
e 6 16
e 6 18
e 6 19
e 6 20
e 7 8
e 7 9
e 7 10
e 7 12
e 7 13
e 7 14
e 7 15
e 7 16
e 7 18
e 7 19
e 7 20
e 8 11
e 8 17
e 8 21
e 8 22
e 8 23
e 8 24
e 8 25
e 9 11
e 9 17
e 9 21
e 9 22
e 9 23
e 9 24
e 9 25
e 10 11
e 10 17
e 10 21
e 10 22
e 10 23
e 10 24
e 10 25
e 11 12
e 11 13
e 11 14
e 11 15
e 11 16
e 11 18
e 11 19
e 11 20
e 12 17
e 12 21
e 12 22
e 12 23
e 12 24
e 12 25
e 13 17
e 13 21
e 13 22
e 13 23
e 13 24
e 13 25
e 14 17
e 14 21
e 14 22
e 14 23
e 14 24
e 14 25
e 15 17
e 15 21
e 15 22
e 15 23
e 15 24
e 15 25
e 16 17
e 16 21
e 16 22
e 16 23
e 16 24
e 16 25
e 17 18
e 17 19
e 17 20
e 18 21
e 18 22
e 18 23
e 18 24
e 18 25
e 19 21
e 19 22
e 19 23
e 19 24
e 19 25
e 20 21
e 20 22
e 20 23
e 20 24
e 20 25
